# Objective value = 5894.62
I_0_0 1214
I_0_1 1292
I_0_2 1473
I_0_3 1931
I_1_0 126
I_1_1 126
I_1_2 63
I_1_3 0
I_2_0 22
I_2_1 22
I_2_2 22
I_2_3 0
I_3_0 116
I_3_1 116
I_3_2 58
I_3_3 0
I_4_0 52
I_4_1 52
I_4_2 2.5999999999999996e+01
I_4_3 0
I_5_0 18
I_5_1 0
I_5_2 18
I_5_3 0
I_6_0 99
I_6_1 99
I_6_2 99
I_6_3 0
I_7_0 78
I_7_1 39
I_7_2 78
I_7_3 3.9000000000000639e+01
I_8_0 21
I_8_1 0
I_8_2 2.1000000000000004e+01
I_8_3 0
I_9_0 64
I_9_1 6.3999999999999247e+01
I_9_2 3.1999999999999247e+01
I_9_3 0
I_10_0 160
I_10_1 160
I_10_2 80
I_10_3 0
q_1_0_0 0
q_1_0_1 0
q_1_0_2 0
q_1_1_0 63
q_1_1_1 0
q_1_1_2 0
q_1_2_0 0
q_1_2_1 0
q_1_2_2 0
q_1_3_0 0
q_1_3_1 0
q_1_3_2 0
q_1_4_0 0
q_1_4_1 0
q_1_4_2 0
q_2_0_0 0
q_2_0_1 0
q_2_0_2 0
q_2_1_0 0
q_2_1_1 22
q_2_1_2 0
q_2_2_0 22
q_2_2_1 0
q_2_2_2 0
q_2_3_0 0
q_2_3_1 0
q_2_3_2 0
q_2_4_0 0
q_2_4_1 0
q_2_4_2 0
q_3_0_0 0
q_3_0_1 0
q_3_0_2 0
q_3_1_0 0
q_3_1_1 0
q_3_1_2 0
q_3_2_0 0
q_3_2_1 0
q_3_2_2 0
q_3_3_0 58
q_3_3_1 0
q_3_3_2 0
q_3_4_0 0
q_3_4_1 0
q_3_4_2 0
q_4_0_0 0
q_4_0_1 0
q_4_0_2 0
q_4_1_0 0
q_4_1_1 0
q_4_1_2 0
q_4_2_0 0
q_4_2_1 0
q_4_2_2 0
q_4_3_0 26
q_4_3_1 0
q_4_3_2 0
q_4_4_0 0
q_4_4_1 0
q_4_4_2 0
q_5_0_0 0
q_5_0_1 0
q_5_0_2 0
q_5_1_0 0
q_5_1_1 0
q_5_1_2 0
q_5_2_0 0
q_5_2_1 36
q_5_2_2 0
q_5_3_0 0
q_5_3_1 0
q_5_3_2 0
q_5_4_0 0
q_5_4_1 0
q_5_4_2 0
q_6_0_0 0
q_6_0_1 0
q_6_0_2 0
q_6_1_0 0
q_6_1_1 99
q_6_1_2 0
q_6_2_0 99
q_6_2_1 0
q_6_2_2 0
q_6_3_0 0
q_6_3_1 0
q_6_3_2 0
q_6_4_0 0
q_6_4_1 0
q_6_4_2 0
q_7_0_0 0
q_7_0_1 78
q_7_0_2 0
q_7_1_0 0
q_7_1_1 0
q_7_1_2 0
q_7_2_0 0
q_7_2_1 0
q_7_2_2 0
q_7_3_0 0
q_7_3_1 0
q_7_3_2 0
q_7_4_0 0
q_7_4_1 0
q_7_4_2 0
q_8_0_0 0
q_8_0_1 42
q_8_0_2 0
q_8_1_0 0
q_8_1_1 0
q_8_1_2 0
q_8_2_0 0
q_8_2_1 0
q_8_2_2 0
q_8_3_0 0
q_8_3_1 0
q_8_3_2 0
q_8_4_0 0
q_8_4_1 0
q_8_4_2 0
q_9_0_0 0
q_9_0_1 0
q_9_0_2 0
q_9_1_0 0
q_9_1_1 0
q_9_1_2 0
q_9_2_0 0
q_9_2_1 0
q_9_2_2 0
q_9_3_0 32
q_9_3_1 0
q_9_3_2 0
q_9_4_0 0
q_9_4_1 0
q_9_4_2 0
q_10_0_0 80
q_10_0_1 0
q_10_0_2 0
q_10_1_0 0
q_10_1_1 0
q_10_1_2 0
q_10_2_0 0
q_10_2_1 0
q_10_2_2 0
q_10_3_0 0
q_10_3_1 0
q_10_3_2 0
q_10_4_0 0
q_10_4_1 0
q_10_4_2 0
y_0_0_0 1
y_0_0_1 1
y_0_0_2 0
y_0_1_0 1
y_0_1_1 1
y_0_1_2 0
y_0_2_0 1
y_0_2_1 1
y_0_2_2 0
y_0_3_0 1
y_0_3_1 0
y_0_3_2 0
y_0_4_0 0
y_0_4_1 0
y_0_4_2 0
y_1_0_0 0
y_1_0_1 0
y_1_0_2 0
y_1_1_0 1
y_1_1_1 0
y_1_1_2 0
y_1_2_0 0
y_1_2_1 0
y_1_2_2 0
y_1_3_0 0
y_1_3_1 0
y_1_3_2 0
y_1_4_0 0
y_1_4_1 0
y_1_4_2 0
y_2_0_0 0
y_2_0_1 0
y_2_0_2 0
y_2_1_0 0
y_2_1_1 1
y_2_1_2 0
y_2_2_0 1
y_2_2_1 0
y_2_2_2 0
y_2_3_0 0
y_2_3_1 0
y_2_3_2 0
y_2_4_0 0
y_2_4_1 0
y_2_4_2 0
y_3_0_0 0
y_3_0_1 0
y_3_0_2 0
y_3_1_0 0
y_3_1_1 0
y_3_1_2 0
y_3_2_0 0
y_3_2_1 0
y_3_2_2 0
y_3_3_0 1
y_3_3_1 0
y_3_3_2 0
y_3_4_0 0
y_3_4_1 0
y_3_4_2 0
y_4_0_0 0
y_4_0_1 0
y_4_0_2 0
y_4_1_0 0
y_4_1_1 0
y_4_1_2 0
y_4_2_0 0
y_4_2_1 0
y_4_2_2 0
y_4_3_0 1
y_4_3_1 0
y_4_3_2 0
y_4_4_0 0
y_4_4_1 0
y_4_4_2 0
y_5_0_0 0
y_5_0_1 0
y_5_0_2 0
y_5_1_0 0
y_5_1_1 0
y_5_1_2 0
y_5_2_0 0
y_5_2_1 1
y_5_2_2 0
y_5_3_0 0
y_5_3_1 0
y_5_3_2 0
y_5_4_0 0
y_5_4_1 0
y_5_4_2 0
y_6_0_0 0
y_6_0_1 0
y_6_0_2 0
y_6_1_0 0
y_6_1_1 1
y_6_1_2 0
y_6_2_0 1
y_6_2_1 0
y_6_2_2 0
y_6_3_0 0
y_6_3_1 0
y_6_3_2 0
y_6_4_0 0
y_6_4_1 0
y_6_4_2 0
y_7_0_0 0
y_7_0_1 1
y_7_0_2 0
y_7_1_0 0
y_7_1_1 0
y_7_1_2 0
y_7_2_0 0
y_7_2_1 0
y_7_2_2 0
y_7_3_0 0
y_7_3_1 0
y_7_3_2 0
y_7_4_0 0
y_7_4_1 0
y_7_4_2 0
y_8_0_0 0
y_8_0_1 1
y_8_0_2 0
y_8_1_0 0
y_8_1_1 0
y_8_1_2 0
y_8_2_0 0
y_8_2_1 0
y_8_2_2 0
y_8_3_0 0
y_8_3_1 0
y_8_3_2 0
y_8_4_0 0
y_8_4_1 0
y_8_4_2 0
y_9_0_0 0
y_9_0_1 0
y_9_0_2 0
y_9_1_0 0
y_9_1_1 0
y_9_1_2 0
y_9_2_0 0
y_9_2_1 0
y_9_2_2 0
y_9_3_0 1
y_9_3_1 0
y_9_3_2 0
y_9_4_0 0
y_9_4_1 0
y_9_4_2 0
y_10_0_0 1
y_10_0_1 0
y_10_0_2 0
y_10_1_0 0
y_10_1_1 0
y_10_1_2 0
y_10_2_0 0
y_10_2_1 0
y_10_2_2 0
y_10_3_0 0
y_10_3_1 0
y_10_3_2 0
y_10_4_0 0
y_10_4_1 0
y_10_4_2 0
x_0_1_0_0 0
x_0_1_0_1 0
x_0_1_0_2 0
x_0_1_1_0 2
x_0_1_1_1 0
x_0_1_1_2 0
x_0_1_2_0 0
x_0_1_2_1 0
x_0_1_2_2 0
x_0_1_3_0 0
x_0_1_3_1 0
x_0_1_3_2 0
x_0_1_4_0 0
x_0_1_4_1 0
x_0_1_4_2 0
x_0_2_0_0 0
x_0_2_0_1 0
x_0_2_0_2 0
x_0_2_1_0 0
x_0_2_1_1 1
x_0_2_1_2 0
x_0_2_2_0 1
x_0_2_2_1 0
x_0_2_2_2 0
x_0_2_3_0 0
x_0_2_3_1 0
x_0_2_3_2 0
x_0_2_4_0 0
x_0_2_4_1 0
x_0_2_4_2 0
x_0_3_0_0 0
x_0_3_0_1 0
x_0_3_0_2 0
x_0_3_1_0 0
x_0_3_1_1 0
x_0_3_1_2 0
x_0_3_2_0 0
x_0_3_2_1 0
x_0_3_2_2 0
x_0_3_3_0 0
x_0_3_3_1 0
x_0_3_3_2 0
x_0_3_4_0 0
x_0_3_4_1 0
x_0_3_4_2 0
x_0_4_0_0 0
x_0_4_0_1 0
x_0_4_0_2 0
x_0_4_1_0 0
x_0_4_1_1 0
x_0_4_1_2 0
x_0_4_2_0 0
x_0_4_2_1 0
x_0_4_2_2 0
x_0_4_3_0 1
x_0_4_3_1 0
x_0_4_3_2 0
x_0_4_4_0 0
x_0_4_4_1 0
x_0_4_4_2 0
x_0_5_0_0 0
x_0_5_0_1 0
x_0_5_0_2 0
x_0_5_1_0 0
x_0_5_1_1 0
x_0_5_1_2 0
x_0_5_2_0 0
x_0_5_2_1 2
x_0_5_2_2 0
x_0_5_3_0 0
x_0_5_3_1 0
x_0_5_3_2 0
x_0_5_4_0 0
x_0_5_4_1 0
x_0_5_4_2 0
x_0_6_0_0 0
x_0_6_0_1 0
x_0_6_0_2 0
x_0_6_1_0 0
x_0_6_1_1 1
x_0_6_1_2 0
x_0_6_2_0 1
x_0_6_2_1 0
x_0_6_2_2 0
x_0_6_3_0 0
x_0_6_3_1 0
x_0_6_3_2 0
x_0_6_4_0 0
x_0_6_4_1 0
x_0_6_4_2 0
x_0_7_0_0 0
x_0_7_0_1 1
x_0_7_0_2 0
x_0_7_1_0 0
x_0_7_1_1 0
x_0_7_1_2 0
x_0_7_2_0 0
x_0_7_2_1 0
x_0_7_2_2 0
x_0_7_3_0 0
x_0_7_3_1 0
x_0_7_3_2 0
x_0_7_4_0 0
x_0_7_4_1 0
x_0_7_4_2 0
x_0_8_0_0 0
x_0_8_0_1 1
x_0_8_0_2 0
x_0_8_1_0 0
x_0_8_1_1 0
x_0_8_1_2 0
x_0_8_2_0 0
x_0_8_2_1 0
x_0_8_2_2 0
x_0_8_3_0 0
x_0_8_3_1 0
x_0_8_3_2 0
x_0_8_4_0 0
x_0_8_4_1 0
x_0_8_4_2 0
x_0_9_0_0 0
x_0_9_0_1 0
x_0_9_0_2 0
x_0_9_1_0 0
x_0_9_1_1 0
x_0_9_1_2 0
x_0_9_2_0 0
x_0_9_2_1 0
x_0_9_2_2 0
x_0_9_3_0 1
x_0_9_3_1 0
x_0_9_3_2 0
x_0_9_4_0 0
x_0_9_4_1 0
x_0_9_4_2 0
x_0_10_0_0 2
x_0_10_0_1 0
x_0_10_0_2 0
x_0_10_1_0 0
x_0_10_1_1 0
x_0_10_1_2 0
x_0_10_2_0 0
x_0_10_2_1 0
x_0_10_2_2 0
x_0_10_3_0 0
x_0_10_3_1 0
x_0_10_3_2 0
x_0_10_4_0 0
x_0_10_4_1 0
x_0_10_4_2 0
x_1_2_0_0 0
x_1_2_0_1 0
x_1_2_0_2 0
x_1_2_1_0 0
x_1_2_1_1 0
x_1_2_1_2 0
x_1_2_2_0 0
x_1_2_2_1 0
x_1_2_2_2 0
x_1_2_3_0 0
x_1_2_3_1 0
x_1_2_3_2 0
x_1_2_4_0 0
x_1_2_4_1 0
x_1_2_4_2 0
x_1_3_0_0 0
x_1_3_0_1 0
x_1_3_0_2 0
x_1_3_1_0 0
x_1_3_1_1 0
x_1_3_1_2 0
x_1_3_2_0 0
x_1_3_2_1 0
x_1_3_2_2 0
x_1_3_3_0 0
x_1_3_3_1 0
x_1_3_3_2 0
x_1_3_4_0 0
x_1_3_4_1 0
x_1_3_4_2 0
x_1_4_0_0 0
x_1_4_0_1 0
x_1_4_0_2 0
x_1_4_1_0 0
x_1_4_1_1 0
x_1_4_1_2 0
x_1_4_2_0 0
x_1_4_2_1 0
x_1_4_2_2 0
x_1_4_3_0 0
x_1_4_3_1 0
x_1_4_3_2 0
x_1_4_4_0 0
x_1_4_4_1 0
x_1_4_4_2 0
x_1_5_0_0 0
x_1_5_0_1 0
x_1_5_0_2 0
x_1_5_1_0 0
x_1_5_1_1 0
x_1_5_1_2 0
x_1_5_2_0 0
x_1_5_2_1 0
x_1_5_2_2 0
x_1_5_3_0 0
x_1_5_3_1 0
x_1_5_3_2 0
x_1_5_4_0 0
x_1_5_4_1 0
x_1_5_4_2 0
x_1_6_0_0 0
x_1_6_0_1 0
x_1_6_0_2 0
x_1_6_1_0 0
x_1_6_1_1 0
x_1_6_1_2 0
x_1_6_2_0 0
x_1_6_2_1 0
x_1_6_2_2 0
x_1_6_3_0 0
x_1_6_3_1 0
x_1_6_3_2 0
x_1_6_4_0 0
x_1_6_4_1 0
x_1_6_4_2 0
x_1_7_0_0 0
x_1_7_0_1 0
x_1_7_0_2 0
x_1_7_1_0 0
x_1_7_1_1 0
x_1_7_1_2 0
x_1_7_2_0 0
x_1_7_2_1 0
x_1_7_2_2 0
x_1_7_3_0 0
x_1_7_3_1 0
x_1_7_3_2 0
x_1_7_4_0 0
x_1_7_4_1 0
x_1_7_4_2 0
x_1_8_0_0 0
x_1_8_0_1 0
x_1_8_0_2 0
x_1_8_1_0 0
x_1_8_1_1 0
x_1_8_1_2 0
x_1_8_2_0 0
x_1_8_2_1 0
x_1_8_2_2 0
x_1_8_3_0 0
x_1_8_3_1 0
x_1_8_3_2 0
x_1_8_4_0 0
x_1_8_4_1 0
x_1_8_4_2 0
x_1_9_0_0 0
x_1_9_0_1 0
x_1_9_0_2 0
x_1_9_1_0 0
x_1_9_1_1 0
x_1_9_1_2 0
x_1_9_2_0 0
x_1_9_2_1 0
x_1_9_2_2 0
x_1_9_3_0 0
x_1_9_3_1 0
x_1_9_3_2 0
x_1_9_4_0 0
x_1_9_4_1 0
x_1_9_4_2 0
x_1_10_0_0 0
x_1_10_0_1 0
x_1_10_0_2 0
x_1_10_1_0 0
x_1_10_1_1 0
x_1_10_1_2 0
x_1_10_2_0 0
x_1_10_2_1 0
x_1_10_2_2 0
x_1_10_3_0 0
x_1_10_3_1 0
x_1_10_3_2 0
x_1_10_4_0 0
x_1_10_4_1 0
x_1_10_4_2 0
x_2_3_0_0 0
x_2_3_0_1 0
x_2_3_0_2 0
x_2_3_1_0 0
x_2_3_1_1 0
x_2_3_1_2 0
x_2_3_2_0 0
x_2_3_2_1 0
x_2_3_2_2 0
x_2_3_3_0 0
x_2_3_3_1 0
x_2_3_3_2 0
x_2_3_4_0 0
x_2_3_4_1 0
x_2_3_4_2 0
x_2_4_0_0 0
x_2_4_0_1 0
x_2_4_0_2 0
x_2_4_1_0 0
x_2_4_1_1 0
x_2_4_1_2 0
x_2_4_2_0 0
x_2_4_2_1 0
x_2_4_2_2 0
x_2_4_3_0 0
x_2_4_3_1 0
x_2_4_3_2 0
x_2_4_4_0 0
x_2_4_4_1 0
x_2_4_4_2 0
x_2_5_0_0 0
x_2_5_0_1 0
x_2_5_0_2 0
x_2_5_1_0 0
x_2_5_1_1 0
x_2_5_1_2 0
x_2_5_2_0 0
x_2_5_2_1 0
x_2_5_2_2 0
x_2_5_3_0 0
x_2_5_3_1 0
x_2_5_3_2 0
x_2_5_4_0 0
x_2_5_4_1 0
x_2_5_4_2 0
x_2_6_0_0 0
x_2_6_0_1 0
x_2_6_0_2 0
x_2_6_1_0 0
x_2_6_1_1 1
x_2_6_1_2 0
x_2_6_2_0 1
x_2_6_2_1 0
x_2_6_2_2 0
x_2_6_3_0 0
x_2_6_3_1 0
x_2_6_3_2 0
x_2_6_4_0 0
x_2_6_4_1 0
x_2_6_4_2 0
x_2_7_0_0 0
x_2_7_0_1 0
x_2_7_0_2 0
x_2_7_1_0 0
x_2_7_1_1 0
x_2_7_1_2 0
x_2_7_2_0 0
x_2_7_2_1 0
x_2_7_2_2 0
x_2_7_3_0 0
x_2_7_3_1 0
x_2_7_3_2 0
x_2_7_4_0 0
x_2_7_4_1 0
x_2_7_4_2 0
x_2_8_0_0 0
x_2_8_0_1 0
x_2_8_0_2 0
x_2_8_1_0 0
x_2_8_1_1 0
x_2_8_1_2 0
x_2_8_2_0 0
x_2_8_2_1 0
x_2_8_2_2 0
x_2_8_3_0 0
x_2_8_3_1 0
x_2_8_3_2 0
x_2_8_4_0 0
x_2_8_4_1 0
x_2_8_4_2 0
x_2_9_0_0 0
x_2_9_0_1 0
x_2_9_0_2 0
x_2_9_1_0 0
x_2_9_1_1 0
x_2_9_1_2 0
x_2_9_2_0 0
x_2_9_2_1 0
x_2_9_2_2 0
x_2_9_3_0 0
x_2_9_3_1 0
x_2_9_3_2 0
x_2_9_4_0 0
x_2_9_4_1 0
x_2_9_4_2 0
x_2_10_0_0 0
x_2_10_0_1 0
x_2_10_0_2 0
x_2_10_1_0 0
x_2_10_1_1 0
x_2_10_1_2 0
x_2_10_2_0 0
x_2_10_2_1 0
x_2_10_2_2 0
x_2_10_3_0 0
x_2_10_3_1 0
x_2_10_3_2 0
x_2_10_4_0 0
x_2_10_4_1 0
x_2_10_4_2 0
x_3_4_0_0 0
x_3_4_0_1 0
x_3_4_0_2 0
x_3_4_1_0 0
x_3_4_1_1 0
x_3_4_1_2 0
x_3_4_2_0 0
x_3_4_2_1 0
x_3_4_2_2 0
x_3_4_3_0 1
x_3_4_3_1 0
x_3_4_3_2 0
x_3_4_4_0 0
x_3_4_4_1 0
x_3_4_4_2 0
x_3_5_0_0 0
x_3_5_0_1 0
x_3_5_0_2 0
x_3_5_1_0 0
x_3_5_1_1 0
x_3_5_1_2 0
x_3_5_2_0 0
x_3_5_2_1 0
x_3_5_2_2 0
x_3_5_3_0 0
x_3_5_3_1 0
x_3_5_3_2 0
x_3_5_4_0 0
x_3_5_4_1 0
x_3_5_4_2 0
x_3_6_0_0 0
x_3_6_0_1 0
x_3_6_0_2 0
x_3_6_1_0 0
x_3_6_1_1 0
x_3_6_1_2 0
x_3_6_2_0 0
x_3_6_2_1 0
x_3_6_2_2 0
x_3_6_3_0 0
x_3_6_3_1 0
x_3_6_3_2 0
x_3_6_4_0 0
x_3_6_4_1 0
x_3_6_4_2 0
x_3_7_0_0 0
x_3_7_0_1 0
x_3_7_0_2 0
x_3_7_1_0 0
x_3_7_1_1 0
x_3_7_1_2 0
x_3_7_2_0 0
x_3_7_2_1 0
x_3_7_2_2 0
x_3_7_3_0 0
x_3_7_3_1 0
x_3_7_3_2 0
x_3_7_4_0 0
x_3_7_4_1 0
x_3_7_4_2 0
x_3_8_0_0 0
x_3_8_0_1 0
x_3_8_0_2 0
x_3_8_1_0 0
x_3_8_1_1 0
x_3_8_1_2 0
x_3_8_2_0 0
x_3_8_2_1 0
x_3_8_2_2 0
x_3_8_3_0 0
x_3_8_3_1 0
x_3_8_3_2 0
x_3_8_4_0 0
x_3_8_4_1 0
x_3_8_4_2 0
x_3_9_0_0 0
x_3_9_0_1 0
x_3_9_0_2 0
x_3_9_1_0 0
x_3_9_1_1 0
x_3_9_1_2 0
x_3_9_2_0 0
x_3_9_2_1 0
x_3_9_2_2 0
x_3_9_3_0 1
x_3_9_3_1 0
x_3_9_3_2 0
x_3_9_4_0 0
x_3_9_4_1 0
x_3_9_4_2 0
x_3_10_0_0 0
x_3_10_0_1 0
x_3_10_0_2 0
x_3_10_1_0 0
x_3_10_1_1 0
x_3_10_1_2 0
x_3_10_2_0 0
x_3_10_2_1 0
x_3_10_2_2 0
x_3_10_3_0 0
x_3_10_3_1 0
x_3_10_3_2 0
x_3_10_4_0 0
x_3_10_4_1 0
x_3_10_4_2 0
x_4_5_0_0 0
x_4_5_0_1 0
x_4_5_0_2 0
x_4_5_1_0 0
x_4_5_1_1 0
x_4_5_1_2 0
x_4_5_2_0 0
x_4_5_2_1 0
x_4_5_2_2 0
x_4_5_3_0 0
x_4_5_3_1 0
x_4_5_3_2 0
x_4_5_4_0 0
x_4_5_4_1 0
x_4_5_4_2 0
x_4_6_0_0 0
x_4_6_0_1 0
x_4_6_0_2 0
x_4_6_1_0 0
x_4_6_1_1 0
x_4_6_1_2 0
x_4_6_2_0 0
x_4_6_2_1 0
x_4_6_2_2 0
x_4_6_3_0 0
x_4_6_3_1 0
x_4_6_3_2 0
x_4_6_4_0 0
x_4_6_4_1 0
x_4_6_4_2 0
x_4_7_0_0 0
x_4_7_0_1 0
x_4_7_0_2 0
x_4_7_1_0 0
x_4_7_1_1 0
x_4_7_1_2 0
x_4_7_2_0 0
x_4_7_2_1 0
x_4_7_2_2 0
x_4_7_3_0 0
x_4_7_3_1 0
x_4_7_3_2 0
x_4_7_4_0 0
x_4_7_4_1 0
x_4_7_4_2 0
x_4_8_0_0 0
x_4_8_0_1 0
x_4_8_0_2 0
x_4_8_1_0 0
x_4_8_1_1 0
x_4_8_1_2 0
x_4_8_2_0 0
x_4_8_2_1 0
x_4_8_2_2 0
x_4_8_3_0 0
x_4_8_3_1 0
x_4_8_3_2 0
x_4_8_4_0 0
x_4_8_4_1 0
x_4_8_4_2 0
x_4_9_0_0 0
x_4_9_0_1 0
x_4_9_0_2 0
x_4_9_1_0 0
x_4_9_1_1 0
x_4_9_1_2 0
x_4_9_2_0 0
x_4_9_2_1 0
x_4_9_2_2 0
x_4_9_3_0 0
x_4_9_3_1 0
x_4_9_3_2 0
x_4_9_4_0 0
x_4_9_4_1 0
x_4_9_4_2 0
x_4_10_0_0 0
x_4_10_0_1 0
x_4_10_0_2 0
x_4_10_1_0 0
x_4_10_1_1 0
x_4_10_1_2 0
x_4_10_2_0 0
x_4_10_2_1 0
x_4_10_2_2 0
x_4_10_3_0 0
x_4_10_3_1 0
x_4_10_3_2 0
x_4_10_4_0 0
x_4_10_4_1 0
x_4_10_4_2 0
x_5_6_0_0 0
x_5_6_0_1 0
x_5_6_0_2 0
x_5_6_1_0 0
x_5_6_1_1 0
x_5_6_1_2 0
x_5_6_2_0 0
x_5_6_2_1 0
x_5_6_2_2 0
x_5_6_3_0 0
x_5_6_3_1 0
x_5_6_3_2 0
x_5_6_4_0 0
x_5_6_4_1 0
x_5_6_4_2 0
x_5_7_0_0 0
x_5_7_0_1 0
x_5_7_0_2 0
x_5_7_1_0 0
x_5_7_1_1 0
x_5_7_1_2 0
x_5_7_2_0 0
x_5_7_2_1 0
x_5_7_2_2 0
x_5_7_3_0 0
x_5_7_3_1 0
x_5_7_3_2 0
x_5_7_4_0 0
x_5_7_4_1 0
x_5_7_4_2 0
x_5_8_0_0 0
x_5_8_0_1 0
x_5_8_0_2 0
x_5_8_1_0 0
x_5_8_1_1 0
x_5_8_1_2 0
x_5_8_2_0 0
x_5_8_2_1 0
x_5_8_2_2 0
x_5_8_3_0 0
x_5_8_3_1 0
x_5_8_3_2 0
x_5_8_4_0 0
x_5_8_4_1 0
x_5_8_4_2 0
x_5_9_0_0 0
x_5_9_0_1 0
x_5_9_0_2 0
x_5_9_1_0 0
x_5_9_1_1 0
x_5_9_1_2 0
x_5_9_2_0 0
x_5_9_2_1 0
x_5_9_2_2 0
x_5_9_3_0 0
x_5_9_3_1 0
x_5_9_3_2 0
x_5_9_4_0 0
x_5_9_4_1 0
x_5_9_4_2 0
x_5_10_0_0 0
x_5_10_0_1 0
x_5_10_0_2 0
x_5_10_1_0 0
x_5_10_1_1 0
x_5_10_1_2 0
x_5_10_2_0 0
x_5_10_2_1 0
x_5_10_2_2 0
x_5_10_3_0 0
x_5_10_3_1 0
x_5_10_3_2 0
x_5_10_4_0 0
x_5_10_4_1 0
x_5_10_4_2 0
x_6_7_0_0 0
x_6_7_0_1 0
x_6_7_0_2 0
x_6_7_1_0 0
x_6_7_1_1 0
x_6_7_1_2 0
x_6_7_2_0 0
x_6_7_2_1 0
x_6_7_2_2 0
x_6_7_3_0 0
x_6_7_3_1 0
x_6_7_3_2 0
x_6_7_4_0 0
x_6_7_4_1 0
x_6_7_4_2 0
x_6_8_0_0 0
x_6_8_0_1 0
x_6_8_0_2 0
x_6_8_1_0 0
x_6_8_1_1 0
x_6_8_1_2 0
x_6_8_2_0 0
x_6_8_2_1 0
x_6_8_2_2 0
x_6_8_3_0 0
x_6_8_3_1 0
x_6_8_3_2 0
x_6_8_4_0 0
x_6_8_4_1 0
x_6_8_4_2 0
x_6_9_0_0 0
x_6_9_0_1 0
x_6_9_0_2 0
x_6_9_1_0 0
x_6_9_1_1 0
x_6_9_1_2 0
x_6_9_2_0 0
x_6_9_2_1 0
x_6_9_2_2 0
x_6_9_3_0 0
x_6_9_3_1 0
x_6_9_3_2 0
x_6_9_4_0 0
x_6_9_4_1 0
x_6_9_4_2 0
x_6_10_0_0 0
x_6_10_0_1 0
x_6_10_0_2 0
x_6_10_1_0 0
x_6_10_1_1 0
x_6_10_1_2 0
x_6_10_2_0 0
x_6_10_2_1 0
x_6_10_2_2 0
x_6_10_3_0 0
x_6_10_3_1 0
x_6_10_3_2 0
x_6_10_4_0 0
x_6_10_4_1 0
x_6_10_4_2 0
x_7_8_0_0 0
x_7_8_0_1 1
x_7_8_0_2 0
x_7_8_1_0 0
x_7_8_1_1 0
x_7_8_1_2 0
x_7_8_2_0 0
x_7_8_2_1 0
x_7_8_2_2 0
x_7_8_3_0 0
x_7_8_3_1 0
x_7_8_3_2 0
x_7_8_4_0 0
x_7_8_4_1 0
x_7_8_4_2 0
x_7_9_0_0 0
x_7_9_0_1 0
x_7_9_0_2 0
x_7_9_1_0 0
x_7_9_1_1 0
x_7_9_1_2 0
x_7_9_2_0 0
x_7_9_2_1 0
x_7_9_2_2 0
x_7_9_3_0 0
x_7_9_3_1 0
x_7_9_3_2 0
x_7_9_4_0 0
x_7_9_4_1 0
x_7_9_4_2 0
x_7_10_0_0 0
x_7_10_0_1 0
x_7_10_0_2 0
x_7_10_1_0 0
x_7_10_1_1 0
x_7_10_1_2 0
x_7_10_2_0 0
x_7_10_2_1 0
x_7_10_2_2 0
x_7_10_3_0 0
x_7_10_3_1 0
x_7_10_3_2 0
x_7_10_4_0 0
x_7_10_4_1 0
x_7_10_4_2 0
x_8_9_0_0 0
x_8_9_0_1 0
x_8_9_0_2 0
x_8_9_1_0 0
x_8_9_1_1 0
x_8_9_1_2 0
x_8_9_2_0 0
x_8_9_2_1 0
x_8_9_2_2 0
x_8_9_3_0 0
x_8_9_3_1 0
x_8_9_3_2 0
x_8_9_4_0 0
x_8_9_4_1 0
x_8_9_4_2 0
x_8_10_0_0 0
x_8_10_0_1 0
x_8_10_0_2 0
x_8_10_1_0 0
x_8_10_1_1 0
x_8_10_1_2 0
x_8_10_2_0 0
x_8_10_2_1 0
x_8_10_2_2 0
x_8_10_3_0 0
x_8_10_3_1 0
x_8_10_3_2 0
x_8_10_4_0 0
x_8_10_4_1 0
x_8_10_4_2 0
x_9_10_0_0 0
x_9_10_0_1 0
x_9_10_0_2 0
x_9_10_1_0 0
x_9_10_1_1 0
x_9_10_1_2 0
x_9_10_2_0 0
x_9_10_2_1 0
x_9_10_2_2 0
x_9_10_3_0 0
x_9_10_3_1 0
x_9_10_3_2 0
x_9_10_4_0 0
x_9_10_4_1 0
x_9_10_4_2 0
